c A SAT instance generated from a 3-CNF formula that had 24 clauses and 8 variables
p cnf 8 24
-2 -5 -7 0
-2 -6 -1 0
-7 -4 5 0
-3 7 -4 0
5 -7 4 0
2 5 -3 0
-5 -7 -1 0
-4 -2 -3 0
-7 -1 -6 0
-7 -4 6 0
-4 2 -7 0
7 1 -6 0
-6 7 3 0
-5 8 3 0
1 -4 -6 0
-4 -2 1 0
7 -8 2 0
-4 1 5 0
5 6 1 0
-3 5 -2 0
4 -5 -2 0
1 -7 2 0
-6 4 8 0
-6 2 1 0
